50	
19583	
20793	
1116	1080
536	488
1302	1260
134	122
67	61
744	720
335	305
670	610
558	540
67	61
372	360
268	244
536	488
670	610
1488	1440
1860	1800
134	122
268	244
603	549
402	366
372	360
402	366
335	305
1302	1260
186	180
335	305
402	366
1116	1080
1674	1620
1116	1080
930	900
536	488
469	427
558	540
1674	1620
268	244
1302	1260
670	610
186	180
67	61
744	720
372	360
186	180
603	549
67	61
744	720
603	549
335	305
1674	1620
201	183